<number of tasks>
20


<number of equipment>
5


<cycle time>
1000


<investment costs>
1,16375
2,19572
3,7693
4,16505
5,23893


<task times>
1,-1,138,247,-1,-1
2,182,-1,-1,176,62
3,-1,145,221,-1,-1
4,149,-1,207,-1,103
5,192,-1,-1,216,200
6,166,-1,-1,162,105
7,146,-1,173,-1,103
8,138,-1,-1,182,107
9,172,-1,272,-1,105
10,133,-1,-1,175,100
11,169,-1,-1,130,71
12,181,-1,-1,180,99
13,115,-1,-1,145,91
14,151,-1,-1,169,106
15,154,-1,267,-1,86
16,188,-1,247,-1,105
17,189,-1,254,-1,144
18,181,-1,-1,172,126
19,-1,190,303,-1,-1
20,191,-1,266,-1,102


<precedence relations>
1,5
2,6
2,9
3,8
3,10
4,7
5,12
6,11
8,14
10,13
11,15
12,16
14,17
15,18
16,19
16,20


<task types>
1,1
2,3
3,1
4,2
5,3
6,3
7,2
8,3
9,2
10,3
11,3
12,3
13,3
14,3
15,2
16,2
17,2
18,3
19,1
20,2


<line depot>
1,1
2,0
3,4
4,0
5,2


<processing costs>
1,14400
2,7200
3,14400
4,7200
5,14400


<saving costs>
1,1637
2,1957
3,769
4,1650
5,2389


<end>
